100
2396
42 20 51 84 7 10 69 13 47 75 8 65 28 5 12 56 54 9 31 12 71 55 8 73 16 29 81 81 75 8 74 75 51 7 29 6 72 18 38 54 19 70 16 74 40 72 88 24 14 75 74 82 25 48 13 71 92 9 73 8 80 27 64 88 69 55 100 41 60 75 59 47 39 32 24 90 100 32 11 74 39 68 64 44 94 58 37 78 10 16 66 54 22 97 44 20 63 54 6 86
10 98 72 74 41 44 89 45 77 64 75 59 9 12 35 61 90 86 9 8 94 90 40 83 74 88 58 37 92 50 86 45 3 60 46 22 79 15 64 8 28 99 37 17 95 32 51 51 64 11 22 58 52 71 36 18 56 71 36 91 54 46 88 49 30 20 11 23 20 30 85 30 2 63 76 24 34 37 1 19 54 69 48 79 73 41 17 89 66 80 84 87 95 7 59 100 88 72 51 51
